NAME: FLS3_408.hcp
COMMENT: 
TYPE: HCP
DIMENSION: 408
EDGE_DATA_FORMAT : EDGE_LIST
EDGE_DATA_SECTION
1 2
1 3
1 21
1 22
2 1
2 3
2 23
2 38
3 1
3 2
3 53
3 54
4 5
4 6
4 55
4 70
5 4
5 6
5 85
5 86
6 4
6 5
6 87
6 102
7 8
7 16
7 22
7 118
8 7
8 9
8 10
8 22
9 8
9 10
9 14
9 19
10 8
10 9
10 11
10 22
11 10
11 12
11 17
11 22
12 11
12 13
12 21
12 22
13 12
13 14
13 15
13 22
14 9
14 13
14 15
14 19
15 13
15 14
15 16
15 22
16 7
16 15
16 17
16 22
17 11
17 16
17 18
17 22
18 17
18 19
18 20
18 22
19 9
19 14
19 18
19 20
20 18
20 19
20 21
20 22
21 1
21 12
21 20
21 22
22 1
22 7
22 8
22 10
22 11
22 12
22 13
22 15
22 16
22 17
22 18
22 20
22 21
22 322
23 2
23 24
23 32
23 38
24 23
24 25
24 26
24 38
25 24
25 26
25 30
25 35
26 24
26 25
26 27
26 38
27 26
27 28
27 33
27 38
28 27
28 29
28 37
28 38
29 28
29 30
29 31
29 38
30 25
30 29
30 31
30 35
31 29
31 30
31 32
31 38
32 23
32 31
32 33
32 38
33 27
33 32
33 34
33 38
34 33
34 35
34 36
34 38
35 25
35 30
35 34
35 36
36 34
36 35
36 37
36 38
37 28
37 36
37 38
37 117
38 2
38 23
38 24
38 26
38 27
38 28
38 29
38 31
38 32
38 33
38 34
38 36
38 37
38 149
39 40
39 48
39 54
39 305
40 39
40 41
40 42
40 54
41 40
41 42
41 46
41 51
42 40
42 41
42 43
42 54
43 42
43 44
43 49
43 54
44 43
44 45
44 53
44 54
45 44
45 46
45 47
45 54
46 41
46 45
46 47
46 51
47 45
47 46
47 48
47 54
48 39
48 47
48 49
48 54
49 43
49 48
49 50
49 54
50 49
50 51
50 52
50 54
51 41
51 46
51 50
51 52
52 50
52 51
52 53
52 54
53 3
53 44
53 52
53 54
54 3
54 39
54 40
54 42
54 43
54 44
54 45
54 47
54 48
54 49
54 50
54 52
54 53
54 134
55 4
55 56
55 64
55 70
56 55
56 57
56 58
56 70
57 56
57 58
57 62
57 67
58 56
58 57
58 59
58 70
59 58
59 60
59 65
59 70
60 59
60 61
60 69
60 70
61 60
61 62
61 63
61 70
62 57
62 61
62 63
62 67
63 61
63 62
63 64
63 70
64 55
64 63
64 65
64 70
65 59
65 64
65 66
65 70
66 65
66 67
66 68
66 70
67 57
67 62
67 66
67 68
68 66
68 67
68 69
68 70
69 60
69 68
69 70
69 408
70 4
70 55
70 56
70 58
70 59
70 60
70 61
70 63
70 64
70 65
70 66
70 68
70 69
70 134
71 72
71 80
71 86
71 235
72 71
72 73
72 74
72 86
73 72
73 74
73 78
73 83
74 72
74 73
74 75
74 86
75 74
75 76
75 81
75 86
76 75
76 77
76 85
76 86
77 76
77 78
77 79
77 86
78 73
78 77
78 79
78 83
79 77
79 78
79 80
79 86
80 71
80 79
80 81
80 86
81 75
81 80
81 82
81 86
82 81
82 83
82 84
82 86
83 73
83 78
83 82
83 84
84 82
84 83
84 85
84 86
85 5
85 76
85 84
85 86
86 5
86 71
86 72
86 74
86 75
86 76
86 77
86 79
86 80
86 81
86 82
86 84
86 85
86 133
87 6
87 88
87 96
87 102
88 87
88 89
88 90
88 102
89 88
89 90
89 94
89 99
90 88
90 89
90 91
90 102
91 90
91 92
91 97
91 102
92 91
92 93
92 101
92 102
93 92
93 94
93 95
93 102
94 89
94 93
94 95
94 99
95 93
95 94
95 96
95 102
96 87
96 95
96 97
96 102
97 91
97 96
97 98
97 102
98 97
98 99
98 100
98 102
99 89
99 94
99 98
99 100
100 98
100 99
100 101
100 102
101 92
101 100
101 102
101 150
102 6
102 87
102 88
102 90
102 91
102 92
102 93
102 95
102 96
102 97
102 98
102 100
102 101
102 391
103 104
103 112
103 118
103 321
104 103
104 105
104 106
104 118
105 104
105 106
105 110
105 115
106 104
106 105
106 107
106 118
107 106
107 108
107 113
107 118
108 107
108 109
108 117
108 118
109 108
109 110
109 111
109 118
110 105
110 109
110 111
110 115
111 109
111 110
111 112
111 118
112 103
112 111
112 113
112 118
113 107
113 112
113 114
113 118
114 113
114 115
114 116
114 118
115 105
115 110
115 114
115 116
116 114
116 115
116 117
116 118
117 37
117 108
117 116
117 118
118 7
118 103
118 104
118 106
118 107
118 108
118 109
118 111
118 112
118 113
118 114
118 116
118 117
118 236
119 120
119 128
119 134
119 407
120 119
120 121
120 122
120 134
121 120
121 122
121 126
121 131
122 120
122 121
122 123
122 134
123 122
123 124
123 129
123 134
124 123
124 125
124 133
124 134
125 124
125 126
125 127
125 134
126 121
126 125
126 127
126 131
127 125
127 126
127 128
127 134
128 119
128 127
128 129
128 134
129 123
129 128
129 130
129 134
130 129
130 131
130 132
130 134
131 121
131 126
131 130
131 132
132 130
132 131
132 133
132 134
133 86
133 124
133 132
133 134
134 54
134 70
134 119
134 120
134 122
134 123
134 124
134 125
134 127
134 128
134 129
134 130
134 132
134 133
135 136
135 144
135 150
135 322
136 135
136 137
136 138
136 150
137 136
137 138
137 142
137 147
138 136
138 137
138 139
138 150
139 138
139 140
139 145
139 150
140 139
140 141
140 149
140 150
141 140
141 142
141 143
141 150
142 137
142 141
142 143
142 147
143 141
143 142
143 144
143 150
144 135
144 143
144 145
144 150
145 139
145 144
145 146
145 150
146 145
146 147
146 148
146 150
147 137
147 142
147 146
147 148
148 146
148 147
148 149
148 150
149 38
149 140
149 148
149 150
150 101
150 135
150 136
150 138
150 139
150 140
150 141
150 143
150 144
150 145
150 146
150 148
150 149
150 236
151 153
151 155
151 170
151 171
152 154
152 171
152 220
152 236
153 151
153 155
153 172
153 187
154 152
154 188
154 204
154 236
155 151
155 153
155 202
155 203
156 157
156 165
156 171
156 219
157 156
157 158
157 159
157 171
158 157
158 159
158 163
158 168
159 157
159 158
159 160
159 171
160 159
160 161
160 166
160 171
161 160
161 162
161 170
161 171
162 161
162 163
162 164
162 171
163 158
163 162
163 164
163 168
164 162
164 163
164 165
164 171
165 156
165 164
165 166
165 171
166 160
166 165
166 167
166 171
167 166
167 168
167 169
167 171
168 158
168 163
168 167
168 169
169 167
169 168
169 170
169 171
170 151
170 161
170 169
170 171
171 151
171 152
171 156
171 157
171 159
171 160
171 161
171 162
171 164
171 165
171 166
171 167
171 169
171 170
172 153
172 173
172 181
172 187
173 172
173 174
173 175
173 187
174 173
174 175
174 179
174 184
175 173
175 174
175 176
175 187
176 175
176 177
176 182
176 187
177 176
177 178
177 186
177 187
178 177
178 179
178 180
178 187
179 174
179 178
179 180
179 184
180 178
180 179
180 181
180 187
181 172
181 180
181 182
181 187
182 176
182 181
182 183
182 187
183 182
183 184
183 185
183 187
184 174
184 179
184 183
184 185
185 183
185 184
185 186
185 187
186 177
186 185
186 187
186 218
187 153
187 172
187 173
187 175
187 176
187 177
187 178
187 180
187 181
187 182
187 183
187 185
187 186
187 234
188 154
188 189
188 197
188 203
189 188
189 190
189 191
189 203
190 189
190 191
190 195
190 200
191 189
191 190
191 192
191 203
192 191
192 193
192 198
192 203
193 192
193 194
193 202
193 203
194 193
194 195
194 196
194 203
195 190
195 194
195 196
195 200
196 194
196 195
196 197
196 203
197 188
197 196
197 198
197 203
198 192
198 197
198 199
198 203
199 198
199 200
199 201
199 203
200 190
200 195
200 199
200 201
201 199
201 200
201 202
201 203
202 155
202 193
202 201
202 203
203 155
203 188
203 189
203 191
203 192
203 193
203 194
203 196
203 197
203 198
203 199
203 201
203 202
203 235
204 154
204 205
204 213
204 219
205 204
205 206
205 207
205 219
206 205
206 207
206 211
206 216
207 205
207 206
207 208
207 219
208 207
208 209
208 214
208 219
209 208
209 210
209 218
209 219
210 209
210 211
210 212
210 219
211 206
211 210
211 212
211 216
212 210
212 211
212 213
212 219
213 204
213 212
213 214
213 219
214 208
214 213
214 215
214 219
215 214
215 216
215 217
215 219
216 206
216 211
216 215
216 217
217 215
217 216
217 218
217 219
218 186
218 209
218 217
218 219
219 156
219 204
219 205
219 207
219 208
219 209
219 210
219 212
219 213
219 214
219 215
219 217
219 218
219 408
220 152
220 221
220 229
220 235
221 220
221 222
221 223
221 235
222 221
222 223
222 227
222 232
223 221
223 222
223 224
223 235
224 223
224 225
224 230
224 235
225 224
225 226
225 234
225 235
226 225
226 227
226 228
226 235
227 222
227 226
227 228
227 232
228 226
228 227
228 229
228 235
229 220
229 228
229 230
229 235
230 224
230 229
230 231
230 235
231 230
231 232
231 233
231 235
232 222
232 227
232 231
232 233
233 231
233 232
233 234
233 235
234 187
234 225
234 233
234 235
235 71
235 203
235 220
235 221
235 223
235 224
235 225
235 226
235 228
235 229
235 230
235 231
235 233
235 234
236 118
236 150
236 152
236 154
237 239
237 241
237 256
237 257
238 240
238 257
238 306
238 322
239 237
239 241
239 258
239 273
240 238
240 274
240 290
240 322
241 237
241 239
241 288
241 289
242 243
242 251
242 257
242 305
243 242
243 244
243 245
243 257
244 243
244 245
244 249
244 254
245 243
245 244
245 246
245 257
246 245
246 247
246 252
246 257
247 246
247 248
247 256
247 257
248 247
248 249
248 250
248 257
249 244
249 248
249 250
249 254
250 248
250 249
250 251
250 257
251 242
251 250
251 252
251 257
252 246
252 251
252 253
252 257
253 252
253 254
253 255
253 257
254 244
254 249
254 253
254 255
255 253
255 254
255 256
255 257
256 237
256 247
256 255
256 257
257 237
257 238
257 242
257 243
257 245
257 246
257 247
257 248
257 250
257 251
257 252
257 253
257 255
257 256
258 239
258 259
258 267
258 273
259 258
259 260
259 261
259 273
260 259
260 261
260 265
260 270
261 259
261 260
261 262
261 273
262 261
262 263
262 268
262 273
263 262
263 264
263 272
263 273
264 263
264 265
264 266
264 273
265 260
265 264
265 266
265 270
266 264
266 265
266 267
266 273
267 258
267 266
267 268
267 273
268 262
268 267
268 269
268 273
269 268
269 270
269 271
269 273
270 260
270 265
270 269
270 271
271 269
271 270
271 272
271 273
272 263
272 271
272 273
272 304
273 239
273 258
273 259
273 261
273 262
273 263
273 264
273 266
273 267
273 268
273 269
273 271
273 272
273 320
274 240
274 275
274 283
274 289
275 274
275 276
275 277
275 289
276 275
276 277
276 281
276 286
277 275
277 276
277 278
277 289
278 277
278 279
278 284
278 289
279 278
279 280
279 288
279 289
280 279
280 281
280 282
280 289
281 276
281 280
281 282
281 286
282 280
282 281
282 283
282 289
283 274
283 282
283 284
283 289
284 278
284 283
284 285
284 289
285 284
285 286
285 287
285 289
286 276
286 281
286 285
286 287
287 285
287 286
287 288
287 289
288 241
288 279
288 287
288 289
289 241
289 274
289 275
289 277
289 278
289 279
289 280
289 282
289 283
289 284
289 285
289 287
289 288
289 321
290 240
290 291
290 299
290 305
291 290
291 292
291 293
291 305
292 291
292 293
292 297
292 302
293 291
293 292
293 294
293 305
294 293
294 295
294 300
294 305
295 294
295 296
295 304
295 305
296 295
296 297
296 298
296 305
297 292
297 296
297 298
297 302
298 296
298 297
298 299
298 305
299 290
299 298
299 300
299 305
300 294
300 299
300 301
300 305
301 300
301 302
301 303
301 305
302 292
302 297
302 301
302 303
303 301
303 302
303 304
303 305
304 272
304 295
304 303
304 305
305 39
305 242
305 290
305 291
305 293
305 294
305 295
305 296
305 298
305 299
305 300
305 301
305 303
305 304
306 238
306 307
306 315
306 321
307 306
307 308
307 309
307 321
308 307
308 309
308 313
308 318
309 307
309 308
309 310
309 321
310 309
310 311
310 316
310 321
311 310
311 312
311 320
311 321
312 311
312 313
312 314
312 321
313 308
313 312
313 314
313 318
314 312
314 313
314 315
314 321
315 306
315 314
315 316
315 321
316 310
316 315
316 317
316 321
317 316
317 318
317 319
317 321
318 308
318 313
318 317
318 319
319 317
319 318
319 320
319 321
320 273
320 311
320 319
320 321
321 103
321 289
321 306
321 307
321 309
321 310
321 311
321 312
321 314
321 315
321 316
321 317
321 319
321 320
322 22
322 135
322 238
322 240
323 325
323 327
323 342
323 343
324 326
324 343
324 392
324 408
325 323
325 327
325 344
325 359
326 324
326 360
326 376
326 408
327 323
327 325
327 374
327 375
328 329
328 337
328 343
328 391
329 328
329 330
329 331
329 343
330 329
330 331
330 335
330 340
331 329
331 330
331 332
331 343
332 331
332 333
332 338
332 343
333 332
333 334
333 342
333 343
334 333
334 335
334 336
334 343
335 330
335 334
335 336
335 340
336 334
336 335
336 337
336 343
337 328
337 336
337 338
337 343
338 332
338 337
338 339
338 343
339 338
339 340
339 341
339 343
340 330
340 335
340 339
340 341
341 339
341 340
341 342
341 343
342 323
342 333
342 341
342 343
343 323
343 324
343 328
343 329
343 331
343 332
343 333
343 334
343 336
343 337
343 338
343 339
343 341
343 342
344 325
344 345
344 353
344 359
345 344
345 346
345 347
345 359
346 345
346 347
346 351
346 356
347 345
347 346
347 348
347 359
348 347
348 349
348 354
348 359
349 348
349 350
349 358
349 359
350 349
350 351
350 352
350 359
351 346
351 350
351 352
351 356
352 350
352 351
352 353
352 359
353 344
353 352
353 354
353 359
354 348
354 353
354 355
354 359
355 354
355 356
355 357
355 359
356 346
356 351
356 355
356 357
357 355
357 356
357 358
357 359
358 349
358 357
358 359
358 390
359 325
359 344
359 345
359 347
359 348
359 349
359 350
359 352
359 353
359 354
359 355
359 357
359 358
359 406
360 326
360 361
360 369
360 375
361 360
361 362
361 363
361 375
362 361
362 363
362 367
362 372
363 361
363 362
363 364
363 375
364 363
364 365
364 370
364 375
365 364
365 366
365 374
365 375
366 365
366 367
366 368
366 375
367 362
367 366
367 368
367 372
368 366
368 367
368 369
368 375
369 360
369 368
369 370
369 375
370 364
370 369
370 371
370 375
371 370
371 372
371 373
371 375
372 362
372 367
372 371
372 373
373 371
373 372
373 374
373 375
374 327
374 365
374 373
374 375
375 327
375 360
375 361
375 363
375 364
375 365
375 366
375 368
375 369
375 370
375 371
375 373
375 374
375 407
376 326
376 377
376 385
376 391
377 376
377 378
377 379
377 391
378 377
378 379
378 383
378 388
379 377
379 378
379 380
379 391
380 379
380 381
380 386
380 391
381 380
381 382
381 390
381 391
382 381
382 383
382 384
382 391
383 378
383 382
383 384
383 388
384 382
384 383
384 385
384 391
385 376
385 384
385 386
385 391
386 380
386 385
386 387
386 391
387 386
387 388
387 389
387 391
388 378
388 383
388 387
388 389
389 387
389 388
389 390
389 391
390 358
390 381
390 389
390 391
391 102
391 328
391 376
391 377
391 379
391 380
391 381
391 382
391 384
391 385
391 386
391 387
391 389
391 390
392 324
392 393
392 401
392 407
393 392
393 394
393 395
393 407
394 393
394 395
394 399
394 404
395 393
395 394
395 396
395 407
396 395
396 397
396 402
396 407
397 396
397 398
397 406
397 407
398 397
398 399
398 400
398 407
399 394
399 398
399 400
399 404
400 398
400 399
400 401
400 407
401 392
401 400
401 402
401 407
402 396
402 401
402 403
402 407
403 402
403 404
403 405
403 407
404 394
404 399
404 403
404 405
405 403
405 404
405 406
405 407
406 359
406 397
406 405
406 407
407 119
407 375
407 392
407 393
407 395
407 396
407 397
407 398
407 400
407 401
407 402
407 403
407 405
407 406
408 69
408 219
408 324
408 326
-1
EOF